NAME          DCAP_2_4_3_300_SS128
ROWS
 N  OBJ
 L  CON1
 L  CON2
 L  CON3
 L  CON4
 L  CON5
 L  CON6
 L  CON7
 L  CON8
 L  CON9
 L  CON10
 L  CON11
 L  CON12
 E  CON13
 E  CON14
 E  CON15
 E  CON16
 E  CON17
 E  CON18
 E  CON19
 E  CON20
 E  CON21
 E  CON22
 E  CON23
 E  CON24
COLUMNS
    x[1,1]    OBJ       6.180167      CON1      1.000000    
    x[1,1]    CON7      -1.000000     CON8      -1.000000   
    x[1,1]    CON9      -1.000000   
    x[1,2]    OBJ       6.563535      CON2      1.000000    
    x[1,2]    CON8      -1.000000     CON9      -1.000000   
    x[1,3]    OBJ       7.443064      CON3      1.000000    
    x[1,3]    CON9      -1.000000   
    x[2,1]    OBJ       6.732585      CON4      1.000000    
    x[2,1]    CON10     -1.000000     CON11     -1.000000   
    x[2,1]    CON12     -1.000000   
    x[2,2]    OBJ       5.039546      CON5      1.000000    
    x[2,2]    CON11     -1.000000     CON12     -1.000000   
    x[2,3]    OBJ       6.054841      CON6      1.000000    
    x[2,3]    CON12     -1.000000   
    MARKER    'MARKER'                'INTORG'
    u[1,1]    OBJ       48.076654     CON1      -1.000000   
    u[1,2]    OBJ       20.066487     CON2      -1.000000   
    u[1,3]    OBJ       32.230043     CON3      -1.000000   
    u[2,1]    OBJ       49.996186     CON4      -1.000000   
    u[2,2]    OBJ       49.466655     CON5      -1.000000   
    u[2,3]    OBJ       27.484319     CON6      -1.000000   
    y[1,1,1]  OBJ       8.147939      CON7      1.496585    
    y[1,1,1]  CON13     1.000000    
    y[1,1,2]  OBJ       6.424630      CON8      0.581072    
    y[1,1,2]  CON14     1.000000    
    y[1,1,3]  OBJ       5.546352      CON9      0.956222    
    y[1,1,3]  CON15     1.000000    
    y[1,2,1]  OBJ       7.499564      CON7      0.515622    
    y[1,2,1]  CON16     1.000000    
    y[1,2,2]  OBJ       8.424397      CON8      0.863143    
    y[1,2,2]  CON17     1.000000    
    y[1,2,3]  OBJ       8.643386      CON9      1.244137    
    y[1,2,3]  CON18     1.000000    
    y[1,3,1]  OBJ       8.522063      CON7      1.226932    
    y[1,3,1]  CON19     1.000000    
    y[1,3,2]  OBJ       6.086009      CON8      1.250294    
    y[1,3,2]  CON20     1.000000    
    y[1,3,3]  OBJ       6.595658      CON9      1.090308    
    y[1,3,3]  CON21     1.000000    
    y[1,4,1]  OBJ       7.794929      CON7      0.748466    
    y[1,4,1]  CON22     1.000000    
    y[1,4,2]  OBJ       6.665382      CON8      1.043856    
    y[1,4,2]  CON23     1.000000    
    y[1,4,3]  OBJ       8.569469      CON9      1.217285    
    y[1,4,3]  CON24     1.000000    
    y[2,1,1]  OBJ       8.567001      CON10     1.496585    
    y[2,1,1]  CON13     1.000000    
    y[2,1,2]  OBJ       9.647011      CON11     0.581072    
    y[2,1,2]  CON14     1.000000    
    y[2,1,3]  OBJ       7.394593      CON12     0.956222    
    y[2,1,3]  CON15     1.000000    
    y[2,2,1]  OBJ       5.817755      CON10     0.515622    
    y[2,2,1]  CON16     1.000000    
    y[2,2,2]  OBJ       6.303318      CON11     0.863143    
    y[2,2,2]  CON17     1.000000    
    y[2,2,3]  OBJ       8.013497      CON12     1.244137    
    y[2,2,3]  CON18     1.000000    
    y[2,3,1]  OBJ       6.909143      CON10     1.226932    
    y[2,3,1]  CON19     1.000000    
    y[2,3,2]  OBJ       5.183291      CON11     1.250294    
    y[2,3,2]  CON20     1.000000    
    y[2,3,3]  OBJ       7.345660      CON12     1.090308    
    y[2,3,3]  CON21     1.000000    
    y[2,4,1]  OBJ       8.198271      CON10     0.748466    
    y[2,4,1]  CON22     1.000000    
    y[2,4,2]  OBJ       8.303353      CON11     1.043856    
    y[2,4,2]  CON23     1.000000    
    y[2,4,3]  OBJ       9.536372      CON12     1.217285    
    y[2,4,3]  CON24     1.000000    
    z[1,1]    OBJ       576.339331    CON13     1.000000    
    z[1,2]    OBJ       805.072042    CON14     1.000000    
    z[1,3]    OBJ       977.037262    CON15     1.000000    
    z[2,1]    OBJ       757.173950    CON16     1.000000    
    z[2,2]    OBJ       694.381140    CON17     1.000000    
    z[2,3]    OBJ       895.438783    CON18     1.000000    
    z[3,1]    OBJ       911.643821    CON19     1.000000    
    z[3,2]    OBJ       756.301249    CON20     1.000000    
    z[3,3]    OBJ       869.721214    CON21     1.000000    
    z[4,1]    OBJ       807.425553    CON22     1.000000    
    z[4,2]    OBJ       588.488399    CON23     1.000000    
    z[4,3]    OBJ       957.726929    CON24     1.000000    
    MARKER    'MARKER'                 'INTEND'
RHS
    RHS       CON1      -0.000000     CON2      -0.000000   
    RHS       CON3      -0.000000     CON4      -0.000000   
    RHS       CON5      -0.000000     CON6      -0.000000   
    RHS       CON7      -0.000000     CON8      -0.000000   
    RHS       CON9      -0.000000     CON10     -0.000000   
    RHS       CON11     -0.000000     CON12     -0.000000   
    RHS       CON13     1.000000      CON14     1.000000    
    RHS       CON15     1.000000      CON16     1.000000    
    RHS       CON17     1.000000      CON18     1.000000    
    RHS       CON19     1.000000      CON20     1.000000    
    RHS       CON21     1.000000      CON22     1.000000    
    RHS       CON23     1.000000      CON24     1.000000    
BOUNDS
 BV BOUND     u[1,1]  
 BV BOUND     u[1,2]  
 BV BOUND     u[1,3]  
 BV BOUND     u[2,1]  
 BV BOUND     u[2,2]  
 BV BOUND     u[2,3]  
 BV BOUND     y[1,1,1]
 BV BOUND     y[1,1,2]
 BV BOUND     y[1,1,3]
 BV BOUND     y[1,2,1]
 BV BOUND     y[1,2,2]
 BV BOUND     y[1,2,3]
 BV BOUND     y[1,3,1]
 BV BOUND     y[1,3,2]
 BV BOUND     y[1,3,3]
 BV BOUND     y[1,4,1]
 BV BOUND     y[1,4,2]
 BV BOUND     y[1,4,3]
 BV BOUND     y[2,1,1]
 BV BOUND     y[2,1,2]
 BV BOUND     y[2,1,3]
 BV BOUND     y[2,2,1]
 BV BOUND     y[2,2,2]
 BV BOUND     y[2,2,3]
 BV BOUND     y[2,3,1]
 BV BOUND     y[2,3,2]
 BV BOUND     y[2,3,3]
 BV BOUND     y[2,4,1]
 BV BOUND     y[2,4,2]
 BV BOUND     y[2,4,3]
 BV BOUND     z[1,1]  
 BV BOUND     z[1,2]  
 BV BOUND     z[1,3]  
 BV BOUND     z[2,1]  
 BV BOUND     z[2,2]  
 BV BOUND     z[2,3]  
 BV BOUND     z[3,1]  
 BV BOUND     z[3,2]  
 BV BOUND     z[3,3]  
 BV BOUND     z[4,1]  
 BV BOUND     z[4,2]  
 BV BOUND     z[4,3]  
ENDATA
